NAME /Users/henri/Research/solvers/instances/idol-instances/robust/collection/spp_dkp_Lefebvre_et_al_2026/shortest_path_2_2/uncertainty_sets/discrete_knapsack
ROWS
 N  OBJ
 L  primal_lower
COLUMNS
    MARKER    'MARKER'                 'INTORG'
    y[0,1]     OBJ        0
    y[0,1]     primal_lower -32.14
    y[1,0]     OBJ        0
    y[1,0]     primal_lower -4.03
    u[0,1]     OBJ        0
    u[0,1]     primal_lower 77
    u[1,0]     OBJ        0
    u[1,0]     primal_lower 11
    MARKER    'MARKER'                 'INTEND'
RHS
    RHS       primal_lower 77
BOUNDS
 LI BND       y[0,1]     0
 UI BND       y[0,1]     1
 LI BND       y[1,0]     0
 UI BND       y[1,0]     1
 LI BND       u[0,1]     0
 UI BND       u[0,1]     1
 LI BND       u[1,0]     0
 UI BND       u[1,0]     1
ENDATA
